171
0
81
80
79
82
77
73
50
51
52
53
43
55
54
58
59
60
61
68
67
167
70
87
85
86
83
84
69
63
64
56
57
62
66
65
88
153
154
89
90
91
94
96
97
99
98
95
92
93
166
108
107
106
105
165
163
101
100
103
117
118
119
120
121
122
123
162
102
104
114
109
113
164
127
126
125
124
136
129
128
130
131
132
112
133
134
7
8
9
10
76
74
75
12
18
19
20
32
158
21
29
22
26
27
28
30
31
34
35
157
33
36
37
38
39
40
156
155
41
42
44
45
46
47
48
49
170
168
72
78
1
2
3
4
5
169
111
110
71
11
13
17
23
15
25
150
160
14
151
152
142
149
148
144
143
147
137
138
135
139
140
159
16
24
161
141
115
116
146
145
6
0